p cnf 12 30
100 0
103 0
201 202  0
301 302  0
-101 0
-102 0
-201 -202 0
-301 -302 0
201 301  0
202 302  0
-200 0
-203 0
-300 0
-303 0
-100 201 -101 202 -102 203 -200 101 -201 102 -202 103 -100 301 -101 302 -102 303 -300 101 -301 102 -302 103 -200 301 -201 302 -202 303 -300 201 -301 202 -302 203  0
